c Sudoku solution
p cnf 729 0
248 0
283 0
297 0
329 0
338 0
361 0
372 0
496 0
526 0
535 0
579 0
618 0
644 0
665 0
656 0
639 0
673 0
734 0
792 0
691 0
858 0
927 0
728 0
622 0
687 0
932 0
955 0
966 0
864 0
842 0
877 0
971 0
181 0
199 0
178 0
713 0
919 0
943 0
893 0
889 0
353 0
563 0
468 0
395 0
145 0
346 0
384 0
276 0
231 0
317 0
437 0
423 0
821 0
836 0
815 0
225 0
116 0
212 0
124 0
133 0
254 0
269 0
162 0
157 0
547 0
767 0
474 0
598 0
485 0
582 0
452 0
551 0
449 0
411 0
514 0
741 0
759 0
775 0
786 0
988 0
994 0
